T = 150;
V = 15;
Q = 15;
L = 8;
C = 7;
P = 15;
time = [|  0, 25, 10, 10,  8, 10,  8,  0, 15,  0, 25, 17, 10, 15,  0,  8, 15, 23, 17, 15, 15, 10, 23, 15, 15, 15, 25,  0, 15, 15,  8,  8,  8,  8,  8,  8,  8,  8,  8,  8,  8,  8,  8,  8,  8,  8,  8,  8,  8,  8,  8,  8,  8,  8,  8,  8,  8,  8,  8,  8,
        | 25,  0, 16, 16, 32, 16, 32, 25, 17, 25,  0, 33, 16, 17, 25, 32, 17, 31, 33, 26, 17, 16, 31, 26, 26, 26,  0, 25, 26, 26, 20, 20, 20, 20, 20, 20, 20, 20, 20, 20, 20, 20, 20, 20, 20, 20, 20, 20, 20, 20, 20, 20, 20, 20, 20, 20, 20, 20, 20, 20,
        | 10, 16,  0,  0, 17,  0, 17, 10, 13, 10, 16, 19,  0, 13, 10, 17, 13, 25, 19, 18, 13,  0, 25, 18, 18, 18, 16, 10, 18, 18,  7,  7,  7,  7,  7,  7,  7,  7,  7,  7,  7,  7,  7,  7,  7,  7,  7,  7,  7,  7,  7,  7,  7,  7,  7,  7,  7,  7,  7,  7,
        | 10, 16,  0,  0, 17,  0, 17, 10, 13, 10, 16, 19,  0, 13, 10, 17, 13, 25, 19, 18, 13,  0, 25, 18, 18, 18, 16, 10, 18, 18,  7,  7,  7,  7,  7,  7,  7,  7,  7,  7,  7,  7,  7,  7,  7,  7,  7,  7,  7,  7,  7,  7,  7,  7,  7,  7,  7,  7,  7,  7,
        |  8, 32, 17, 17,  0, 17,  0,  8, 20,  8, 32, 18, 17, 20,  8,  0, 20, 25, 18, 18, 20, 17, 25, 18, 18, 18, 32,  8, 18, 18, 14, 14, 14, 14, 14, 14, 14, 14, 14, 14, 14, 14, 14, 14, 14, 14, 14, 14, 14, 14, 14, 14, 14, 14, 14, 14, 14, 14, 14, 14,
        | 10, 16,  0,  0, 17,  0, 17, 10, 13, 10, 16, 19,  0, 13, 10, 17, 13, 25, 19, 18, 13,  0, 25, 18, 18, 18, 16, 10, 18, 18,  7,  7,  7,  7,  7,  7,  7,  7,  7,  7,  7,  7,  7,  7,  7,  7,  7,  7,  7,  7,  7,  7,  7,  7,  7,  7,  7,  7,  7,  7,
        |  8, 32, 17, 17,  0, 17,  0,  8, 20,  8, 32, 18, 17, 20,  8,  0, 20, 25, 18, 18, 20, 17, 25, 18, 18, 18, 32,  8, 18, 18, 14, 14, 14, 14, 14, 14, 14, 14, 14, 14, 14, 14, 14, 14, 14, 14, 14, 14, 14, 14, 14, 14, 14, 14, 14, 14, 14, 14, 14, 14,
        |  0, 25, 10, 10,  8, 10,  8,  0, 15,  0, 25, 17, 10, 15,  0,  8, 15, 23, 17, 15, 15, 10, 23, 15, 15, 15, 25,  0, 15, 15,  8,  8,  8,  8,  8,  8,  8,  8,  8,  8,  8,  8,  8,  8,  8,  8,  8,  8,  8,  8,  8,  8,  8,  8,  8,  8,  8,  8,  8,  8,
        | 15, 17, 13, 13, 20, 13, 20, 15,  0, 15, 17, 30, 13,  0, 15, 20,  0, 14, 30,  9,  0, 13, 14,  9,  9,  9, 17, 15,  9,  9,  8,  8,  8,  8,  8,  8,  8,  8,  8,  8,  8,  8,  8,  8,  8,  8,  8,  8,  8,  8,  8,  8,  8,  8,  8,  8,  8,  8,  8,  8,
        |  0, 25, 10, 10,  8, 10,  8,  0, 15,  0, 25, 17, 10, 15,  0,  8, 15, 23, 17, 15, 15, 10, 23, 15, 15, 15, 25,  0, 15, 15,  8,  8,  8,  8,  8,  8,  8,  8,  8,  8,  8,  8,  8,  8,  8,  8,  8,  8,  8,  8,  8,  8,  8,  8,  8,  8,  8,  8,  8,  8,
        | 25,  0, 16, 16, 32, 16, 32, 25, 17, 25,  0, 33, 16, 17, 25, 32, 17, 31, 33, 26, 17, 16, 31, 26, 26, 26,  0, 25, 26, 26, 20, 20, 20, 20, 20, 20, 20, 20, 20, 20, 20, 20, 20, 20, 20, 20, 20, 20, 20, 20, 20, 20, 20, 20, 20, 20, 20, 20, 20, 20,
        | 17, 33, 19, 19, 18, 19, 18, 17, 30, 17, 33,  0, 19, 30, 17, 18, 30, 40,  0, 32, 30, 19, 40, 32, 32, 32, 33, 17, 32, 32, 23, 23, 23, 23, 23, 23, 23, 23, 23, 23, 23, 23, 23, 23, 23, 23, 23, 23, 23, 23, 23, 23, 23, 23, 23, 23, 23, 23, 23, 23,
        | 10, 16,  0,  0, 17,  0, 17, 10, 13, 10, 16, 19,  0, 13, 10, 17, 13, 25, 19, 18, 13,  0, 25, 18, 18, 18, 16, 10, 18, 18,  7,  7,  7,  7,  7,  7,  7,  7,  7,  7,  7,  7,  7,  7,  7,  7,  7,  7,  7,  7,  7,  7,  7,  7,  7,  7,  7,  7,  7,  7,
        | 15, 17, 13, 13, 20, 13, 20, 15,  0, 15, 17, 30, 13,  0, 15, 20,  0, 14, 30,  9,  0, 13, 14,  9,  9,  9, 17, 15,  9,  9,  8,  8,  8,  8,  8,  8,  8,  8,  8,  8,  8,  8,  8,  8,  8,  8,  8,  8,  8,  8,  8,  8,  8,  8,  8,  8,  8,  8,  8,  8,
        |  0, 25, 10, 10,  8, 10,  8,  0, 15,  0, 25, 17, 10, 15,  0,  8, 15, 23, 17, 15, 15, 10, 23, 15, 15, 15, 25,  0, 15, 15,  8,  8,  8,  8,  8,  8,  8,  8,  8,  8,  8,  8,  8,  8,  8,  8,  8,  8,  8,  8,  8,  8,  8,  8,  8,  8,  8,  8,  8,  8,
        |  8, 32, 17, 17,  0, 17,  0,  8, 20,  8, 32, 18, 17, 20,  8,  0, 20, 25, 18, 18, 20, 17, 25, 18, 18, 18, 32,  8, 18, 18, 14, 14, 14, 14, 14, 14, 14, 14, 14, 14, 14, 14, 14, 14, 14, 14, 14, 14, 14, 14, 14, 14, 14, 14, 14, 14, 14, 14, 14, 14,
        | 15, 17, 13, 13, 20, 13, 20, 15,  0, 15, 17, 30, 13,  0, 15, 20,  0, 14, 30,  9,  0, 13, 14,  9,  9,  9, 17, 15,  9,  9,  8,  8,  8,  8,  8,  8,  8,  8,  8,  8,  8,  8,  8,  8,  8,  8,  8,  8,  8,  8,  8,  8,  8,  8,  8,  8,  8,  8,  8,  8,
        | 23, 31, 25, 25, 25, 25, 25, 23, 14, 23, 31, 40, 25, 14, 23, 25, 14,  0, 40,  9, 14, 25,  0,  9,  9,  9, 31, 23,  9,  9, 19, 19, 19, 19, 19, 19, 19, 19, 19, 19, 19, 19, 19, 19, 19, 19, 19, 19, 19, 19, 19, 19, 19, 19, 19, 19, 19, 19, 19, 19,
        | 17, 33, 19, 19, 18, 19, 18, 17, 30, 17, 33,  0, 19, 30, 17, 18, 30, 40,  0, 32, 30, 19, 40, 32, 32, 32, 33, 17, 32, 32, 23, 23, 23, 23, 23, 23, 23, 23, 23, 23, 23, 23, 23, 23, 23, 23, 23, 23, 23, 23, 23, 23, 23, 23, 23, 23, 23, 23, 23, 23,
        | 15, 26, 18, 18, 18, 18, 18, 15,  9, 15, 26, 32, 18,  9, 15, 18,  9,  9, 32,  0,  9, 18,  9,  0,  0,  0, 26, 15,  0,  0, 11, 11, 11, 11, 11, 11, 11, 11, 11, 11, 11, 11, 11, 11, 11, 11, 11, 11, 11, 11, 11, 11, 11, 11, 11, 11, 11, 11, 11, 11,
        | 15, 17, 13, 13, 20, 13, 20, 15,  0, 15, 17, 30, 13,  0, 15, 20,  0, 14, 30,  9,  0, 13, 14,  9,  9,  9, 17, 15,  9,  9,  8,  8,  8,  8,  8,  8,  8,  8,  8,  8,  8,  8,  8,  8,  8,  8,  8,  8,  8,  8,  8,  8,  8,  8,  8,  8,  8,  8,  8,  8,
        | 10, 16,  0,  0, 17,  0, 17, 10, 13, 10, 16, 19,  0, 13, 10, 17, 13, 25, 19, 18, 13,  0, 25, 18, 18, 18, 16, 10, 18, 18,  7,  7,  7,  7,  7,  7,  7,  7,  7,  7,  7,  7,  7,  7,  7,  7,  7,  7,  7,  7,  7,  7,  7,  7,  7,  7,  7,  7,  7,  7,
        | 23, 31, 25, 25, 25, 25, 25, 23, 14, 23, 31, 40, 25, 14, 23, 25, 14,  0, 40,  9, 14, 25,  0,  9,  9,  9, 31, 23,  9,  9, 19, 19, 19, 19, 19, 19, 19, 19, 19, 19, 19, 19, 19, 19, 19, 19, 19, 19, 19, 19, 19, 19, 19, 19, 19, 19, 19, 19, 19, 19,
        | 15, 26, 18, 18, 18, 18, 18, 15,  9, 15, 26, 32, 18,  9, 15, 18,  9,  9, 32,  0,  9, 18,  9,  0,  0,  0, 26, 15,  0,  0, 11, 11, 11, 11, 11, 11, 11, 11, 11, 11, 11, 11, 11, 11, 11, 11, 11, 11, 11, 11, 11, 11, 11, 11, 11, 11, 11, 11, 11, 11,
        | 15, 26, 18, 18, 18, 18, 18, 15,  9, 15, 26, 32, 18,  9, 15, 18,  9,  9, 32,  0,  9, 18,  9,  0,  0,  0, 26, 15,  0,  0, 11, 11, 11, 11, 11, 11, 11, 11, 11, 11, 11, 11, 11, 11, 11, 11, 11, 11, 11, 11, 11, 11, 11, 11, 11, 11, 11, 11, 11, 11,
        | 15, 26, 18, 18, 18, 18, 18, 15,  9, 15, 26, 32, 18,  9, 15, 18,  9,  9, 32,  0,  9, 18,  9,  0,  0,  0, 26, 15,  0,  0, 11, 11, 11, 11, 11, 11, 11, 11, 11, 11, 11, 11, 11, 11, 11, 11, 11, 11, 11, 11, 11, 11, 11, 11, 11, 11, 11, 11, 11, 11,
        | 25,  0, 16, 16, 32, 16, 32, 25, 17, 25,  0, 33, 16, 17, 25, 32, 17, 31, 33, 26, 17, 16, 31, 26, 26, 26,  0, 25, 26, 26, 20, 20, 20, 20, 20, 20, 20, 20, 20, 20, 20, 20, 20, 20, 20, 20, 20, 20, 20, 20, 20, 20, 20, 20, 20, 20, 20, 20, 20, 20,
        |  0, 25, 10, 10,  8, 10,  8,  0, 15,  0, 25, 17, 10, 15,  0,  8, 15, 23, 17, 15, 15, 10, 23, 15, 15, 15, 25,  0, 15, 15,  8,  8,  8,  8,  8,  8,  8,  8,  8,  8,  8,  8,  8,  8,  8,  8,  8,  8,  8,  8,  8,  8,  8,  8,  8,  8,  8,  8,  8,  8,
        | 15, 26, 18, 18, 18, 18, 18, 15,  9, 15, 26, 32, 18,  9, 15, 18,  9,  9, 32,  0,  9, 18,  9,  0,  0,  0, 26, 15,  0,  0, 11, 11, 11, 11, 11, 11, 11, 11, 11, 11, 11, 11, 11, 11, 11, 11, 11, 11, 11, 11, 11, 11, 11, 11, 11, 11, 11, 11, 11, 11,
        | 15, 26, 18, 18, 18, 18, 18, 15,  9, 15, 26, 32, 18,  9, 15, 18,  9,  9, 32,  0,  9, 18,  9,  0,  0,  0, 26, 15,  0,  0, 11, 11, 11, 11, 11, 11, 11, 11, 11, 11, 11, 11, 11, 11, 11, 11, 11, 11, 11, 11, 11, 11, 11, 11, 11, 11, 11, 11, 11, 11,
        |  8, 20,  7,  7, 14,  7, 14,  8,  8,  8, 20, 23,  7,  8,  8, 14,  8, 19, 23, 11,  8,  7, 19, 11, 11, 11, 20,  8, 11, 11,  0,  0,  0,  0,  0,  0,  0,  0,  0,  0,  0,  0,  0,  0,  0,  0,  0,  0,  0,  0,  0,  0,  0,  0,  0,  0,  0,  0,  0,  0,
        |  8, 20,  7,  7, 14,  7, 14,  8,  8,  8, 20, 23,  7,  8,  8, 14,  8, 19, 23, 11,  8,  7, 19, 11, 11, 11, 20,  8, 11, 11,  0,  0,  0,  0,  0,  0,  0,  0,  0,  0,  0,  0,  0,  0,  0,  0,  0,  0,  0,  0,  0,  0,  0,  0,  0,  0,  0,  0,  0,  0,
        |  8, 20,  7,  7, 14,  7, 14,  8,  8,  8, 20, 23,  7,  8,  8, 14,  8, 19, 23, 11,  8,  7, 19, 11, 11, 11, 20,  8, 11, 11,  0,  0,  0,  0,  0,  0,  0,  0,  0,  0,  0,  0,  0,  0,  0,  0,  0,  0,  0,  0,  0,  0,  0,  0,  0,  0,  0,  0,  0,  0,
        |  8, 20,  7,  7, 14,  7, 14,  8,  8,  8, 20, 23,  7,  8,  8, 14,  8, 19, 23, 11,  8,  7, 19, 11, 11, 11, 20,  8, 11, 11,  0,  0,  0,  0,  0,  0,  0,  0,  0,  0,  0,  0,  0,  0,  0,  0,  0,  0,  0,  0,  0,  0,  0,  0,  0,  0,  0,  0,  0,  0,
        |  8, 20,  7,  7, 14,  7, 14,  8,  8,  8, 20, 23,  7,  8,  8, 14,  8, 19, 23, 11,  8,  7, 19, 11, 11, 11, 20,  8, 11, 11,  0,  0,  0,  0,  0,  0,  0,  0,  0,  0,  0,  0,  0,  0,  0,  0,  0,  0,  0,  0,  0,  0,  0,  0,  0,  0,  0,  0,  0,  0,
        |  8, 20,  7,  7, 14,  7, 14,  8,  8,  8, 20, 23,  7,  8,  8, 14,  8, 19, 23, 11,  8,  7, 19, 11, 11, 11, 20,  8, 11, 11,  0,  0,  0,  0,  0,  0,  0,  0,  0,  0,  0,  0,  0,  0,  0,  0,  0,  0,  0,  0,  0,  0,  0,  0,  0,  0,  0,  0,  0,  0,
        |  8, 20,  7,  7, 14,  7, 14,  8,  8,  8, 20, 23,  7,  8,  8, 14,  8, 19, 23, 11,  8,  7, 19, 11, 11, 11, 20,  8, 11, 11,  0,  0,  0,  0,  0,  0,  0,  0,  0,  0,  0,  0,  0,  0,  0,  0,  0,  0,  0,  0,  0,  0,  0,  0,  0,  0,  0,  0,  0,  0,
        |  8, 20,  7,  7, 14,  7, 14,  8,  8,  8, 20, 23,  7,  8,  8, 14,  8, 19, 23, 11,  8,  7, 19, 11, 11, 11, 20,  8, 11, 11,  0,  0,  0,  0,  0,  0,  0,  0,  0,  0,  0,  0,  0,  0,  0,  0,  0,  0,  0,  0,  0,  0,  0,  0,  0,  0,  0,  0,  0,  0,
        |  8, 20,  7,  7, 14,  7, 14,  8,  8,  8, 20, 23,  7,  8,  8, 14,  8, 19, 23, 11,  8,  7, 19, 11, 11, 11, 20,  8, 11, 11,  0,  0,  0,  0,  0,  0,  0,  0,  0,  0,  0,  0,  0,  0,  0,  0,  0,  0,  0,  0,  0,  0,  0,  0,  0,  0,  0,  0,  0,  0,
        |  8, 20,  7,  7, 14,  7, 14,  8,  8,  8, 20, 23,  7,  8,  8, 14,  8, 19, 23, 11,  8,  7, 19, 11, 11, 11, 20,  8, 11, 11,  0,  0,  0,  0,  0,  0,  0,  0,  0,  0,  0,  0,  0,  0,  0,  0,  0,  0,  0,  0,  0,  0,  0,  0,  0,  0,  0,  0,  0,  0,
        |  8, 20,  7,  7, 14,  7, 14,  8,  8,  8, 20, 23,  7,  8,  8, 14,  8, 19, 23, 11,  8,  7, 19, 11, 11, 11, 20,  8, 11, 11,  0,  0,  0,  0,  0,  0,  0,  0,  0,  0,  0,  0,  0,  0,  0,  0,  0,  0,  0,  0,  0,  0,  0,  0,  0,  0,  0,  0,  0,  0,
        |  8, 20,  7,  7, 14,  7, 14,  8,  8,  8, 20, 23,  7,  8,  8, 14,  8, 19, 23, 11,  8,  7, 19, 11, 11, 11, 20,  8, 11, 11,  0,  0,  0,  0,  0,  0,  0,  0,  0,  0,  0,  0,  0,  0,  0,  0,  0,  0,  0,  0,  0,  0,  0,  0,  0,  0,  0,  0,  0,  0,
        |  8, 20,  7,  7, 14,  7, 14,  8,  8,  8, 20, 23,  7,  8,  8, 14,  8, 19, 23, 11,  8,  7, 19, 11, 11, 11, 20,  8, 11, 11,  0,  0,  0,  0,  0,  0,  0,  0,  0,  0,  0,  0,  0,  0,  0,  0,  0,  0,  0,  0,  0,  0,  0,  0,  0,  0,  0,  0,  0,  0,
        |  8, 20,  7,  7, 14,  7, 14,  8,  8,  8, 20, 23,  7,  8,  8, 14,  8, 19, 23, 11,  8,  7, 19, 11, 11, 11, 20,  8, 11, 11,  0,  0,  0,  0,  0,  0,  0,  0,  0,  0,  0,  0,  0,  0,  0,  0,  0,  0,  0,  0,  0,  0,  0,  0,  0,  0,  0,  0,  0,  0,
        |  8, 20,  7,  7, 14,  7, 14,  8,  8,  8, 20, 23,  7,  8,  8, 14,  8, 19, 23, 11,  8,  7, 19, 11, 11, 11, 20,  8, 11, 11,  0,  0,  0,  0,  0,  0,  0,  0,  0,  0,  0,  0,  0,  0,  0,  0,  0,  0,  0,  0,  0,  0,  0,  0,  0,  0,  0,  0,  0,  0,
        |  8, 20,  7,  7, 14,  7, 14,  8,  8,  8, 20, 23,  7,  8,  8, 14,  8, 19, 23, 11,  8,  7, 19, 11, 11, 11, 20,  8, 11, 11,  0,  0,  0,  0,  0,  0,  0,  0,  0,  0,  0,  0,  0,  0,  0,  0,  0,  0,  0,  0,  0,  0,  0,  0,  0,  0,  0,  0,  0,  0,
        |  8, 20,  7,  7, 14,  7, 14,  8,  8,  8, 20, 23,  7,  8,  8, 14,  8, 19, 23, 11,  8,  7, 19, 11, 11, 11, 20,  8, 11, 11,  0,  0,  0,  0,  0,  0,  0,  0,  0,  0,  0,  0,  0,  0,  0,  0,  0,  0,  0,  0,  0,  0,  0,  0,  0,  0,  0,  0,  0,  0,
        |  8, 20,  7,  7, 14,  7, 14,  8,  8,  8, 20, 23,  7,  8,  8, 14,  8, 19, 23, 11,  8,  7, 19, 11, 11, 11, 20,  8, 11, 11,  0,  0,  0,  0,  0,  0,  0,  0,  0,  0,  0,  0,  0,  0,  0,  0,  0,  0,  0,  0,  0,  0,  0,  0,  0,  0,  0,  0,  0,  0,
        |  8, 20,  7,  7, 14,  7, 14,  8,  8,  8, 20, 23,  7,  8,  8, 14,  8, 19, 23, 11,  8,  7, 19, 11, 11, 11, 20,  8, 11, 11,  0,  0,  0,  0,  0,  0,  0,  0,  0,  0,  0,  0,  0,  0,  0,  0,  0,  0,  0,  0,  0,  0,  0,  0,  0,  0,  0,  0,  0,  0,
        |  8, 20,  7,  7, 14,  7, 14,  8,  8,  8, 20, 23,  7,  8,  8, 14,  8, 19, 23, 11,  8,  7, 19, 11, 11, 11, 20,  8, 11, 11,  0,  0,  0,  0,  0,  0,  0,  0,  0,  0,  0,  0,  0,  0,  0,  0,  0,  0,  0,  0,  0,  0,  0,  0,  0,  0,  0,  0,  0,  0,
        |  8, 20,  7,  7, 14,  7, 14,  8,  8,  8, 20, 23,  7,  8,  8, 14,  8, 19, 23, 11,  8,  7, 19, 11, 11, 11, 20,  8, 11, 11,  0,  0,  0,  0,  0,  0,  0,  0,  0,  0,  0,  0,  0,  0,  0,  0,  0,  0,  0,  0,  0,  0,  0,  0,  0,  0,  0,  0,  0,  0,
        |  8, 20,  7,  7, 14,  7, 14,  8,  8,  8, 20, 23,  7,  8,  8, 14,  8, 19, 23, 11,  8,  7, 19, 11, 11, 11, 20,  8, 11, 11,  0,  0,  0,  0,  0,  0,  0,  0,  0,  0,  0,  0,  0,  0,  0,  0,  0,  0,  0,  0,  0,  0,  0,  0,  0,  0,  0,  0,  0,  0,
        |  8, 20,  7,  7, 14,  7, 14,  8,  8,  8, 20, 23,  7,  8,  8, 14,  8, 19, 23, 11,  8,  7, 19, 11, 11, 11, 20,  8, 11, 11,  0,  0,  0,  0,  0,  0,  0,  0,  0,  0,  0,  0,  0,  0,  0,  0,  0,  0,  0,  0,  0,  0,  0,  0,  0,  0,  0,  0,  0,  0,
        |  8, 20,  7,  7, 14,  7, 14,  8,  8,  8, 20, 23,  7,  8,  8, 14,  8, 19, 23, 11,  8,  7, 19, 11, 11, 11, 20,  8, 11, 11,  0,  0,  0,  0,  0,  0,  0,  0,  0,  0,  0,  0,  0,  0,  0,  0,  0,  0,  0,  0,  0,  0,  0,  0,  0,  0,  0,  0,  0,  0,
        |  8, 20,  7,  7, 14,  7, 14,  8,  8,  8, 20, 23,  7,  8,  8, 14,  8, 19, 23, 11,  8,  7, 19, 11, 11, 11, 20,  8, 11, 11,  0,  0,  0,  0,  0,  0,  0,  0,  0,  0,  0,  0,  0,  0,  0,  0,  0,  0,  0,  0,  0,  0,  0,  0,  0,  0,  0,  0,  0,  0,
        |  8, 20,  7,  7, 14,  7, 14,  8,  8,  8, 20, 23,  7,  8,  8, 14,  8, 19, 23, 11,  8,  7, 19, 11, 11, 11, 20,  8, 11, 11,  0,  0,  0,  0,  0,  0,  0,  0,  0,  0,  0,  0,  0,  0,  0,  0,  0,  0,  0,  0,  0,  0,  0,  0,  0,  0,  0,  0,  0,  0,
        |  8, 20,  7,  7, 14,  7, 14,  8,  8,  8, 20, 23,  7,  8,  8, 14,  8, 19, 23, 11,  8,  7, 19, 11, 11, 11, 20,  8, 11, 11,  0,  0,  0,  0,  0,  0,  0,  0,  0,  0,  0,  0,  0,  0,  0,  0,  0,  0,  0,  0,  0,  0,  0,  0,  0,  0,  0,  0,  0,  0,
        |  8, 20,  7,  7, 14,  7, 14,  8,  8,  8, 20, 23,  7,  8,  8, 14,  8, 19, 23, 11,  8,  7, 19, 11, 11, 11, 20,  8, 11, 11,  0,  0,  0,  0,  0,  0,  0,  0,  0,  0,  0,  0,  0,  0,  0,  0,  0,  0,  0,  0,  0,  0,  0,  0,  0,  0,  0,  0,  0,  0,
        |  8, 20,  7,  7, 14,  7, 14,  8,  8,  8, 20, 23,  7,  8,  8, 14,  8, 19, 23, 11,  8,  7, 19, 11, 11, 11, 20,  8, 11, 11,  0,  0,  0,  0,  0,  0,  0,  0,  0,  0,  0,  0,  0,  0,  0,  0,  0,  0,  0,  0,  0,  0,  0,  0,  0,  0,  0,  0,  0,  0,
        |  8, 20,  7,  7, 14,  7, 14,  8,  8,  8, 20, 23,  7,  8,  8, 14,  8, 19, 23, 11,  8,  7, 19, 11, 11, 11, 20,  8, 11, 11,  0,  0,  0,  0,  0,  0,  0,  0,  0,  0,  0,  0,  0,  0,  0,  0,  0,  0,  0,  0,  0,  0,  0,  0,  0,  0,  0,  0,  0,  0|];
l =     [  7,  2,  8,  8,  4,  8,  4,  7,  5,  7,  2,  1,  8,  5,  7,  4,  5,  6,  1,  3,  5,  8,  6,  3,  3,  3,  2,  7,  3,  3];
a =     [  8, 43, 21, 18, 33, 11, 15, 33, 19, 31, 20, 23, 30, 27,  8, 29, 74, 63, 53, 63, 36, 51, 67, 39, 65, 56, 70, 50, 51, 38];
b =     [ 41, 69, 57, 46, 69, 44, 38, 60, 35, 51, 58, 59, 60, 59, 36, 80,121,112,104,118,100,105,112,100,108, 96,115,116, 98,100];
s =     [ 13, 14, 17, 16, 12, 12, 19, 11, 11, 19, 10, 14, 10, 15, 15, 13, 14, 17, 16, 12, 12, 19, 11, 11, 19, 10, 14, 10, 15, 15];
q =     [  4,  4,  1,  2,  3,  2,  3,  1,  1,  2,  1,  1,  1,  2,  1, -4, -4, -1, -2, -3, -2, -3, -1, -1, -2, -1, -1, -1, -2, -1];
